c preprocessed version of anna, 24 vertices, 147 edges
p td 24 147
1 0
5 0
12 0
6 0
13 0
9 0
1 2
1 3
11 1
6 1
9 1
2 3
4 2
11 2
4 3
11 3
5 4
11 4
6 4
14 4
6 5
13 5
16 5
9 5
6 7
12 6
13 6
8 6
16 6
9 6
8 7
16 7
9 7
9 8
13 8
15 8
14 8
9 10
9 12
9 13
10 11
13 12
16 12
14 13
14 15
16 15
17 23
17 0
17 1
17 2
17 3
17 4
17 5
17 6
17 7
17 8
17 11
17 12
17 13
17 15
17 16
17 9
17 10
17 18
17 19
17 21
17 22
17 20
18 23
18 1
18 2
18 3
18 4
18 6
18 7
18 8
18 11
18 10
18 9
18 13
18 15
18 16
18 14
18 19
18 21
18 22
18 20
19 23
19 14
19 9
19 10
19 20
19 13
19 22
19 21
20 23
20 21
20 22
20 2
20 6
20 7
20 11
20 8
20 10
20 14
21 23
21 14
21 22
21 2
21 6
21 11
21 12
21 8
21 16
21 15
21 10
22 23
22 14
22 0
22 2
22 3
22 6
22 7
22 11
22 12
22 13
22 8
22 16
22 15
22 9
22 10
23 1
23 2
23 3
23 4
23 5
23 6
23 7
23 8
23 11
23 10
23 9
23 12
23 13
23 14
23 15
23 16
